7060433586088021033505,4,1,2,015,11,1,2,07,12,1,2,010,8,1,2,07,13,1,2,02,8,1,2,09,15,1,2,012,4,1,2,02,5,1,2,03,6,1,2,013,8,1,2,03,11,1,2,013,9,1,2,02,11,1,2,07,7,1,2,09,4,1,2,09,1,1,2,09,10,1,2,012,8,1,2,09,1,1,2,08,3,1,2,012,8,1,2,08,9,1,2,04,5,1,2,06,7,1,2,013,14,1,2,08,15,1,2,014,2,1,2,03,5,1,2,012,15,1,2,015,3,1,2,014,7,1,2,08,3,1,2,05,7,1,2,013,14,1,2,014,7,1,2,01,10,1,2,03,4,1,2,04,13,1,2,08,6,1,2,012,15,1,2,01,8,1,2,08,7,1,2,013,15,1,2,01,1,1,2,05,13,1,2,014,13,1,2,011,1,1,2,012,13,1,2,09,13,1,2,0